(set-logic QF_S)
(set-option :strings-exp true)
(set-option :produce-models true)
(declare-fun sigmaStar_0 () String)
(declare-fun literal_6 () String)
(assert (= literal_6 "\x3c\x63\x65\x6e\x74\x65\x72\x3e\x63\x6f\x6d\x6d\x65\x6e\x74\x75\x70\x64\x61\x74\x65\x64\x3c\x2f\x63\x65\x6e\x74\x65\x72\x3e"))
(assert (str.in.re literal_6 (re.++ (re.* re.allchar) (re.++ (str.to.re "\x5c\x3c\x53\x43\x52\x49\x50\x54") (re.* re.allchar)))))
(check-sat)
(get-model)
